
Gurobi 12.0.2 (mac64[arm]) logging started Sat Jun 14 00:02:31 2025

Set parameter LogFile to value "/Users/yurunfeng/Documents/GitHub/LRGTS-store-location/result/gurobi/snyder/88nodes/88-0.95-3.log"
Gurobi Optimizer version 12.0.2 build v12.0.2rc0 (mac64[arm] - Darwin 24.5.0 24F74)

CPU model: Apple M4
Thread count: 10 physical cores, 10 logical processors, using up to 10 threads

Non-default parameters:
TimeLimit  1200

Optimize a model with 728288 rows, 1378696 columns and 6524758 nonzeros
Model fingerprint: 0x9efab339
Variable types: 689304 continuous, 689392 integer (689392 binary)
Coefficient statistics:
  Matrix range     [5e-02, 1e+00]
  Objective range  [8e+00, 7e+06]
  Bounds range     [1e+00, 1e+00]
  RHS range        [1e+00, 3e+00]
Found heuristic solution: objective 4.484057e+07
Presolve removed 15664 rows and 7832 columns (presolve time = 5s)...
Presolve removed 15664 rows and 7832 columns (presolve time = 10s)...
Presolve removed 15664 rows and 7832 columns
Presolve time: 11.62s
Presolved: 712624 rows, 1370864 columns, 5831441 nonzeros
Variable types: 681472 continuous, 689392 integer (689392 binary)
Deterministic concurrent LP optimizer: primal simplex, dual simplex, and barrier
Showing barrier log only...

Root barrier log...

Ordering time: 1.69s

Barrier performed 0 iterations in 15.52 seconds (40.26 work units)
Barrier solve interrupted - model solved by another algorithm

Concurrent spin time: 1.08s (can be avoided by choosing Method=3)

Solved with dual simplex

Root simplex log...

Iteration    Objective       Primal Inf.    Dual Inf.      Time
    5395    1.3988623e+06   0.000000e+00   0.000000e+00     16s

Root relaxation: objective 1.398862e+06, 5395 iterations, 3.47 seconds (5.30 work units)

    Nodes    |    Current Node    |     Objective Bounds      |     Work
 Expl Unexpl |  Obj  Depth IntInf | Incumbent    BestBd   Gap | It/Node Time

     0     0 1398862.32    0 1543 4.4841e+07 1398862.32  96.9%     -   17s
H    0     0                    1727710.6278 1398862.32  19.0%     -   33s
     0     0 1416167.67    0 3653 1727710.63 1416167.67  18.0%     -  176s
     0     0 1418847.69    0 3740 1727710.63 1418847.69  17.9%     -  178s
H    0     0                    1727710.5387 1418847.69  17.9%     -  190s
H    0     0                    1683251.5165 1418847.69  15.7%     -  191s
H    0     0                    1643993.7913 1418847.69  13.7%     -  191s
H    0     0                    1643501.8620 1418847.69  13.7%     -  191s
H    0     0                    1638708.6186 1418847.69  13.4%     -  191s
H    0     0                    1636953.6616 1418847.69  13.3%     -  191s
H    0     0                    1636669.3947 1418847.69  13.3%     -  191s
     0     0 1419347.59    0 3331 1636669.39 1419347.59  13.3%     -  193s
     0     0 1518314.45    0 6060 1636669.35 1518314.45  7.23%     - 1200s

Explored 1 nodes (236392 simplex iterations) in 1200.13 seconds (5081.61 work units)
Thread count was 10 (of 10 available processors)

Solution count 9: 1.63667e+06 1.63667e+06 1.63695e+06 ... 4.48406e+07

Time limit reached
Best objective 1.636669350915e+06, best bound 1.518314447147e+06, gap 7.2314%
